(set-info :origin "driver benchmark extracted from Microsoft SDV")
(set-logic HORN)
(declare-fun Proc20 (Int Int Int Int Int Bool Int Int Int) Bool)
(declare-fun Proc14 (Int Int Int Int Int Bool Int Int Int Int) Bool)
(declare-fun Proc33 (Int Int Int Int Int Bool Int) Bool)
(declare-fun Proc31 (Int Int Int Int Int Bool Int) Bool)
(declare-fun Proc26 (Int Int Int Int Int Bool Int) Bool)
(declare-fun Proc12 (Int Int Int Int Int Bool Int) Bool)
(declare-fun Proc16 (Int Int Int Int Int Bool) Bool)
(declare-fun Proc21
             (Int Int Int Int Int Bool Int Int Int Int Bool Int Int)
             Bool)
(declare-fun Proc9 (Int Int Int Int Int Bool Int Int) Bool)
(declare-fun Proc40
             (Int Int Int Int Int Bool Int Bool Int Int Int Int Int)
             Bool)
(declare-fun Proc24 (Int Int Int Int Int Bool Int) Bool)
(declare-fun Proc37 (Int Int Int Int Int Bool Int Int) Bool)
(declare-fun Proc18 (Int Int Int Int Int Bool Int Int) Bool)
(declare-fun Proc36 (Int Int Int Int Int Bool) Bool)
(declare-fun Proc39 (Int Int Int Int Int Bool) Bool)
(declare-fun Proc10 (Int Int Int Int Int Bool Int Int) Bool)
(declare-fun Proc34 (Int Int Int Int Int Bool Int) Bool)
(declare-fun Proc11 (Int Int Int Int Int Bool Int Int Int) Bool)
(declare-fun Proc17 (Int Int Int Int Int Bool Int) Bool)
(declare-fun Proc38 (Int Int Int Int Int Bool Int Int Int Int) Bool)
(declare-fun Proc5 (Int Int Int Int Int Bool Int Int) Bool)
(declare-fun Proc3 (Int Int Int Int Int Bool Int) Bool)
(declare-fun Proc13 (Int Int Int Int Int Bool Int Int Int Int) Bool)
(declare-fun Proc0 (Int Int Int Int Int Bool Int Int Int) Bool)
(declare-fun Proc25 (Int Int Int Int Int Bool Int) Bool)
(declare-fun Proc2 (Int Int Int Int Int Bool Int Int Int Int) Bool)
(declare-fun Proc19 (Int Int Int Int Int Bool Int Int) Bool)
(declare-fun Proc8 (Int Int Int Int Int Bool Int Int Int) Bool)
(declare-fun Proc32 (Int Int Int Int Int Bool Int) Bool)
(declare-fun Proc30 (Int Int Int Int Int Bool Int) Bool)
(declare-fun Proc28 (Int Int Int Int Int Bool Int) Bool)
(declare-fun Proc4 (Int Int Int Int Int Bool Int Int) Bool)
(declare-fun Proc7 (Int Int Int Int Int Bool) Bool)
(declare-fun Proc1 (Int Int Int Int Int Bool Int Int) Bool)
(declare-fun Proc27 (Int Int Int Int Int Bool Int) Bool)
(declare-fun Proc6 (Int Int Int Int Int Bool Int Int Int Int) Bool)
(declare-fun Proc29 (Int Int Int Int Int Bool Int) Bool)
(declare-fun Proc23 (Int Int Int Int Int Bool Int) Bool)
(declare-fun Proc15 (Int Int Int Int Int Bool) Bool)
(declare-fun Proc35 (Int Int Int Int Int Bool Int) Bool)
(declare-fun Proc22 (Int Int Int Int Int Bool Int) Bool)
(assert (forall ((A Int)
         (B Int)
         (C Int)
         (D Int)
         (E Int)
         (F Int)
         (G Int)
         (H Int)
         (I Bool))
  (let ((a!1 (not (or (not I) (= H 0) (not (= G 259))))))
    (=> a!1 (Proc0 F E D C B I A H G)))))
(assert (forall ((A Int)
         (B Int)
         (C Int)
         (D Int)
         (E Int)
         (F Int)
         (G Int)
         (H Int)
         (I Bool)
         (J Int)
         (K Int)
         (L Int)
         (M Int))
  (let ((a!1 (and (not (<= K (+ 1 M))) (not (<= K L)))))
  (let ((a!2 (or (not I)
                 (not (= M L))
                 (not a!1)
                 (not (Proc1 K J H G F I M E))
                 (not (and (= D K) (= C E))))))
    (=> (not a!2) (Proc2 L J H G F I B A D C))))))
(assert (forall ((A Int) (B Int) (C Int) (D Int) (E Int) (F Int) (G Int) (I Bool))
  (let ((a!1 (not (or (not I) (not (= G 1))))))
    (=> a!1 (Proc1 F E D C B I A G)))))
(assert (forall ((A Int) (B Int) (C Int) (D Int) (E Int) (F Int) (I Bool))
  (=> false (Proc3 F E D C B I A))))
(assert (forall ((A Int)
         (B Int)
         (C Int)
         (D Int)
         (E Int)
         (F Int)
         (G Int)
         (H Int)
         (I Bool)
         (J Int))
  (let ((a!1 (and (not (<= G (+ 1 J))) (not (<= G H)))))
  (let ((a!2 (not (or (not I)
                      (not (= J H))
                      (not a!1)
                      (not (Proc3 G F E D C I J))
                      (not (= B G))))))
    (=> a!2 (Proc4 H F E D C I A B))))))
(assert (forall ((A Int)
         (B Int)
         (C Int)
         (D Int)
         (E Int)
         (F Int)
         (G Int)
         (H Int)
         (I Bool)
         (J Int))
  (let ((a!1 (and (not (<= G (+ 1 J))) (not (<= G H)))))
  (let ((a!2 (not (or (not I)
                      (not (= J H))
                      (not a!1)
                      (not (Proc3 G F E D C I J))
                      (not (= B G))))))
    (=> a!2 (Proc5 H F E D C I A B))))))
(assert (forall ((A Int)
         (B Int)
         (C Int)
         (D Int)
         (E Int)
         (F Int)
         (G Int)
         (H Int)
         (I Bool)
         (J Int)
         (K Int)
         (L Int)
         (M Int)
         (N Int)
         (O Int)
         (P Int))
  (let ((a!1 (or (not (= G 1))
                 (not (and (= F H) (= E G)))
                 (not (and (= D F) (= C E)))))
        (a!2 (or (= G 1)
                 (not (and (= F H) (= E G)))
                 (not (and (= D F) (= C E)))))
        (a!3 (and (not (<= A (+ 1 B))) (not (<= A O)))))
  (let ((a!4 (or (= P 259)
                 (not (= B O))
                 (not a!3)
                 (not (Proc3 A N M L K I B))
                 (not (and (= F A) (= E K)))
                 (not (and (= D F) (= C E))))))
  (let ((a!5 (and (or (not (= P 259))
                      (not (Proc2 O N M L K I J P H G))
                      (and a!1 a!2))
                  a!4)))
    (=> (not (or (not I) a!5)) (Proc6 O N M L K I J P D C)))))))
(assert (forall ((A Int)
         (B Int)
         (C Int)
         (D Int)
         (E Int)
         (F Int)
         (G Int)
         (H Int)
         (I Bool)
         (J Int)
         (K Int)
         (L Int)
         (M Int)
         (N Int)
         (O Int)
         (P Int)
         (Q Int))
  (let ((a!1 (not (and (not (= J 0)) (= H (+ 16 J)) (Proc8 P O N M L I H K G))))
        (a!2 (not (Proc9 P O N M L I K 0)))
        (a!4 (not (and (= B (- 1073741822)) (= C B)))))
  (let ((a!3 (or (not (= C 0)) (= K 0) a!2 (not (= F C)) (not (= E F))))
        (a!7 (or (not (= A (- 1073741661)))
                 (= K 0)
                 a!2
                 (not (= F A))
                 (not (= E F)))))
  (let ((a!5 (and a!3 (or a!4 (= K 0) a!2 (not (= F C)) (not (= E F))))))
  (let ((a!6 (or (not (Proc10 P O N M L I K D))
                 (= D 0)
                 (and (or (= D 0) a!5) a!3))))
  (let ((a!8 (and (or (<= 0 G) (= K 0) a!2 (not (= F G)) (not (= E F)))
                  (or (not (<= 0 G)) (= J 0) (and a!6 a!7)))))
  (let ((a!9 (not (or (not I) (= Q 0) (not (Proc7 P O N M L I)) (= K 0) a!1 a!8))))
    (=> a!9 (Proc11 P O N M L I Q K E))))))))))
(assert (forall ((A Int)
         (B Int)
         (C Int)
         (D Int)
         (E Int)
         (F Int)
         (G Int)
         (H Int)
         (I Bool)
         (J Int)
         (K Int)
         (L Int)
         (M Int)
         (N Int)
         (O Int)
         (P Int)
         (Q Int)
         (R Int))
  (let ((a!1 (not (and (not (= K 0)) (Proc13 R Q P O N I J L H G))))
        (a!2 (not (and (not (= L Q)) (= F G))))
        (a!4 (and (not (<= B (+ 1 C))) (not (<= B G)))))
  (let ((a!3 (or a!2 (not (and (= E H) (= D F)))))
        (a!5 (or (not (= L Q))
                 (not (= C G))
                 (not a!4)
                 (not (and (Proc5 B Q P O N I C A) (= F A)))
                 (not (and (= E H) (= D F))))))
  (let ((a!6 (not (or (not I)
                      (not (Proc7 R Q P O N I))
                      (= M 0)
                      (not (Proc12 R Q P O N I L))
                      (= K 0)
                      a!1
                      (and a!3 a!5)))))
    (=> a!6 (Proc14 R Q P O N I M L E D)))))))
(assert (forall ((A Int) (B Int) (C Int) (D Int) (E Int) (I Bool))
  (=> I (Proc15 E D C B A I))))
(assert (forall ((A Int) (B Int) (C Int) (D Int) (E Int) (I Bool))
  (=> I (Proc16 E D C B A I))))
(assert (forall ((A Int) (B Int) (C Int) (D Int) (E Int) (F Int) (I Bool))
  (let ((a!1 (not (or (not I) (not (= F E))))))
    (=> a!1 (Proc17 D C B E A I F)))))
(assert (forall ((A Int)
         (B Int)
         (C Int)
         (D Int)
         (E Int)
         (F Int)
         (G Int)
         (H Int)
         (I Bool))
  (let ((a!1 (or (not I) (not (and (= H G) (= F 0))))))
    (=> (not a!1) (Proc18 E D C B A I H F)))))
(assert (forall ((A Int)
         (B Int)
         (C Int)
         (D Int)
         (E Int)
         (F Int)
         (G Int)
         (H Int)
         (I Bool)
         (J Int)
         (K Int)
         (L Int)
         (M Int)
         (N Int)
         (O Int)
         (P Int)
         (Q Int)
         (R Int)
         (S Bool)
         (T Bool)
         (U Int)
         (V Int)
         (W Int)
         (X Int)
         (Y Int)
         (Z Bool))
  (let ((a!1 (not (and (not (<= Y 0)) (Proc19 Y X W V U Z R Q))))
        (a!2 (not (and (= G J) (= F M) (= E K) (= D N) (= S T) (= C L) (= B Q)))))
  (let ((a!3 (or (= K 0) (not (and (= J H) (not T))) a!2))
        (a!4 (or (not (and (= K 0) (= I Z))) (not (and (= J A) (= T I))) a!2)))
  (let ((a!5 (and (or (= K 1) (and a!3 a!4)) (or (not (= K 1)) (and a!3 a!4)))))
  (let ((a!6 (not (or (not Z)
                      a!1
                      (not (Proc18 R X W Q U Z P O))
                      (not (Proc17 R P W Q O Z N))
                      (not (Proc16 R P N Q O Z))
                      (not (Proc15 R P N Q O Z))
                      (= N 0)
                      (not (Proc20 R P N Q O Z M L K))
                      a!5))))
    (=> a!6 (Proc21 Y X W V U Z G F E D S C B))))))))
(assert (forall ((A Int) (B Int) (C Int) (D Int) (E Int) (F Int) (I Bool))
  (let ((a!1 (not (or (not I) (not (= F 1))))))
    (=> a!1 (Proc22 E D C B A I F)))))
(assert (forall ((A Int) (B Int) (C Int) (D Int) (E Int) (F Int) (I Bool))
  (let ((a!1 (not (or (not I) (not (= F 0))))))
    (=> a!1 (Proc23 E D C B A I F)))))
(assert (forall ((A Int) (B Int) (C Int) (D Int) (E Int) (F Int) (I Bool))
  (let ((a!1 (not (or (not I) (not (= F 1))))))
    (=> a!1 (Proc24 E D C B A I F)))))
(assert (forall ((A Int) (B Int) (C Int) (D Int) (E Int) (F Int) (I Bool))
  (let ((a!1 (not (or (not I) (not (= F 0))))))
    (=> a!1 (Proc25 E D C B A I F)))))
(assert (forall ((A Int) (B Int) (C Int) (D Int) (E Int) (F Int) (I Bool))
  (let ((a!1 (not (or (not I) (not (= F 1))))))
    (=> a!1 (Proc26 E D C B A I F)))))
(assert (forall ((A Int) (B Int) (C Int) (D Int) (E Int) (F Int) (I Bool))
  (let ((a!1 (not (or (not I) (not (= F 0))))))
    (=> a!1 (Proc27 E D C B A I F)))))
(assert (forall ((A Int) (B Int) (C Int) (D Int) (E Int) (F Int) (I Bool))
  (let ((a!1 (not (or (not I) (not (= F 1))))))
    (=> a!1 (Proc28 E D C B A I F)))))
(assert (forall ((A Int) (B Int) (C Int) (D Int) (E Int) (F Int) (I Bool))
  (let ((a!1 (not (or (not I) (not (= F 1))))))
    (=> a!1 (Proc29 E D C B A I F)))))
(assert (forall ((A Int) (B Int) (C Int) (D Int) (E Int) (F Int) (I Bool))
  (let ((a!1 (not (or (not I) (not (= F 0))))))
    (=> a!1 (Proc30 E D C B A I F)))))
(assert (forall ((A Int) (B Int) (C Int) (D Int) (E Int) (F Int) (I Bool))
  (let ((a!1 (not (or (not I) (not (= F 0))))))
    (=> a!1 (Proc31 E D C B A I F)))))
(assert (forall ((A Int) (B Int) (C Int) (D Int) (E Int) (F Int) (I Bool))
  (let ((a!1 (not (or (not I) (not (= F 0))))))
    (=> a!1 (Proc32 E D C B A I F)))))
(assert (forall ((A Int) (B Int) (C Int) (D Int) (E Int) (F Int) (G Int) (I Bool))
  (let ((a!1 (or (not I) (not (= G (- 1073741823))) (not (= F G)))))
    (=> (not a!1) (Proc33 E D C B A I F)))))
(assert (forall ((A Int)
         (B Int)
         (C Int)
         (D Int)
         (E Int)
         (F Int)
         (G Int)
         (H Int)
         (I Bool)
         (J Int)
         (K Int)
         (L Int))
  (let ((a!1 (not (and (= L (- 1073741738)) (= K L))))
        (a!2 (not (and (= H (- 1073741823)) (= K H)))))
  (let ((a!3 (and (or a!1 (not (= J K)))
                  (or (not (= K 0)) (not (= J K)))
                  (or a!2 (not (= J K))))))
    (=> (not (or (not I) a!3)) (Proc8 G F E D C I B A J))))))
(assert (forall ((A Int)
         (B Int)
         (C Int)
         (D Int)
         (E Int)
         (F Int)
         (G Int)
         (H Int)
         (I Bool)
         (J Int)
         (K Int)
         (L Int)
         (M Int)
         (N Int)
         (O Int))
  (let ((a!1 (not (and (not (= H N)) (= F O))))
        (a!3 (and (not (<= B (+ 1 C))) (not (<= B O)))))
  (let ((a!2 (or a!1 (not (and (= E G) (= D F)))))
        (a!4 (or (not (= H N))
                 (not (= C O))
                 (not a!3)
                 (not (and (Proc4 B N M L K I C A) (= F A)))
                 (not (and (= E G) (= D F))))))
  (let ((a!5 (not (or (not I) (not (Proc0 O N M L K I J H G)) (and a!2 a!4)))))
    (=> a!5 (Proc13 O N M L K I J H E D)))))))
(assert (forall ((A Int) (B Int) (C Int) (D Int) (E Int) (F Int) (G Int) (I Bool))
  (=> I (Proc9 G F E D C I B A))))
(assert (forall ((A Int) (B Int) (C Int) (D Int) (E Int) (F Int) (I Bool))
  (let ((a!1 (not (or (not I) (not (= F 1))))))
    (=> a!1 (Proc34 E D C B A I F)))))
(assert (forall ((A Int)
         (B Int)
         (C Int)
         (D Int)
         (E Int)
         (F Int)
         (G Int)
         (H Int)
         (I Bool))
  (let ((a!1 (not (or (not I) (= H 0) (not (= G F))))))
    (=> a!1 (Proc10 E D C B A I H G)))))
(assert (forall ((A Int) (B Int) (C Int) (D Int) (E Int) (F Int) (I Bool))
  (=> I (Proc12 F E D C B I A))))
(assert (forall ((A Int)
         (B Int)
         (C Int)
         (D Int)
         (E Int)
         (F Int)
         (G Int)
         (H Int)
         (I Bool)
         (J Int)
         (K Int)
         (L Int)
         (M Int)
         (N Int)
         (O Int)
         (P Int)
         (Q Int)
         (R Int)
         (U Int)
         (V Int)
         (W Int)
         (X Int)
         (Y Int)
         (A1 Int)
         (B1 Int)
         (C1 Int)
         (D1 Int)
         (E1 Int)
         (F1 Int))
  (let ((a!1 (not (Proc37 V D1 C1 B1 A1 I U F1))))
  (let ((a!2 (or (= Y 0)
                 (not (Proc11 E1 D1 C1 B1 A1 I X F1 W))
                 (not (and (= V E1) (= U W)))
                 a!1
                 (= F1 0)
                 (not (and (= R U) (= Q V)))))
        (a!3 (or (= Y 0)
                 (not (Proc11 E1 D1 C1 B1 A1 I X F1 P))
                 (not (and (= V E1) (= U P)))
                 a!1
                 (= F1 0)
                 (not (and (= R U) (= Q V)))))
        (a!4 (or (= Y 0)
                 (not (Proc33 E1 D1 C1 B1 A1 I O))
                 (not (and (= V E1) (= U O)))
                 a!1
                 (= F1 0)
                 (not (and (= R U) (= Q V)))))
        (a!5 (or (= Y 0)
                 (not (Proc33 E1 D1 C1 B1 A1 I N))
                 (not (and (= V E1) (= U N)))
                 a!1
                 (= F1 0)
                 (not (and (= R U) (= Q V)))))
        (a!6 (or (= Y 0)
                 (not (Proc33 E1 D1 C1 B1 A1 I M))
                 (not (and (= V E1) (= U M)))
                 a!1
                 (= F1 0)
                 (not (and (= R U) (= Q V)))))
        (a!7 (or (= Y 0)
                 (not (Proc33 E1 D1 C1 B1 A1 I L))
                 (not (and (= V E1) (= U L)))
                 a!1
                 (= F1 0)
                 (not (and (= R U) (= Q V)))))
        (a!8 (or (= Y 0)
                 (not (Proc33 E1 D1 C1 B1 A1 I K))
                 (not (and (= V E1) (= U K)))
                 a!1
                 (= F1 0)
                 (not (and (= R U) (= Q V)))))
        (a!9 (or (not (Proc33 E1 D1 C1 B1 A1 I J))
                 (not (and (= V E1) (= U J)))
                 a!1
                 (= F1 0)
                 (not (and (= R U) (= Q V)))))
        (a!10 (or (= Y 0)
                  (not (Proc11 E1 D1 C1 B1 A1 I X F1 H))
                  (not (and (= V E1) (= U H)))
                  a!1
                  (= F1 0)
                  (not (and (= R U) (= Q V)))))
        (a!11 (or (= Y 0)
                  (not (Proc33 E1 D1 C1 B1 A1 I G))
                  (not (and (= V E1) (= U G)))
                  a!1
                  (= F1 0)
                  (not (and (= R U) (= Q V)))))
        (a!12 (or (= Y 0)
                  (not (Proc33 E1 D1 C1 B1 A1 I F))
                  (not (and (= V E1) (= U F)))
                  a!1
                  (= F1 0)
                  (not (and (= R U) (= Q V)))))
        (a!13 (or (not (Proc33 E1 D1 C1 B1 A1 I E))
                  (not (and (= V E1) (= U E)))
                  a!1
                  (= F1 0)
                  (not (and (= R U) (= Q V)))))
        (a!14 (or (= Y 0)
                  (not (Proc33 E1 D1 C1 B1 A1 I D))
                  (not (and (= V E1) (= U D)))
                  a!1
                  (= F1 0)
                  (not (and (= R U) (= Q V)))))
        (a!15 (or (not (Proc33 E1 D1 C1 B1 A1 I C))
                  (not (and (= V E1) (= U C)))
                  a!1
                  (= F1 0)
                  (not (and (= R U) (= Q V)))))
        (a!16 (or (= Y 0)
                  (not (Proc14 E1 D1 C1 B1 A1 I X F1 B A))
                  (not (and (= V A) (= U B)))
                  a!1
                  (= F1 0)
                  (not (and (= R U) (= Q V))))))
  (let ((a!17 (not (or (not I)
                       (= F1 0)
                       (not (Proc35 E1 D1 C1 B1 A1 I F1))
                       (= Y 0)
                       (not (Proc36 E1 D1 C1 B1 A1 I))
                       (and a!2
                            a!3
                            a!4
                            a!5
                            a!6
                            a!7
                            a!8
                            a!9
                            a!10
                            a!11
                            a!12
                            a!13
                            a!14
                            a!15
                            a!16)))))
    (=> a!17 (Proc38 E1 D1 C1 B1 A1 I X F1 R Q)))))))
(assert (forall ((A Int) (B Int) (C Int) (D Int) (E Int) (F Int) (I Bool))
  (=> (not (or (not I) (= F 0))) (Proc35 E D C B A I F))))
(assert (forall ((A Int) (B Int) (C Int) (D Int) (E Int) (I Bool))
  (=> I (Proc7 E D C B A I))))
(assert (forall ((A Int)
         (B Int)
         (C Int)
         (D Int)
         (E Int)
         (F Int)
         (G Int)
         (H Int)
         (I Bool)
         (J Int)
         (K Int)
         (L Int)
         (M Int)
         (N Int)
         (O Int)
         (P Int)
         (Q Int)
         (R Int)
         (U Int)
         (V Int)
         (W Int)
         (X Int)
         (Y Int)
         (A1 Int)
         (B1 Int)
         (C1 Int)
         (D1 Int)
         (E1 Int)
         (F1 Int)
         (G1 Int))
  (let ((a!1 (not (and (= L G1) (= K N) (= J M))))
        (a!3 (and (not (<= D (+ 1 E))) (not (<= D F)))))
  (let ((a!2 (or (not (and (= N F1) (= M D1))) a!1))
        (a!4 (or (not (= B 1)) (not (and (= N C) (= M B))) a!1))
        (a!5 (or (= B 1) (not (and (= N C) (= M B))) a!1))
        (a!6 (or (not (= C1 0)) (not (and (= N F1) (= M D1))) a!1)))
  (let ((a!7 (and a!2
                  (or (= C1 0)
                      (not (Proc39 F1 G1 G1 E1 D1 I))
                      (not (Proc38 F1 G1 G1 E1 D1 I H G1 G F))
                      (not (= E F))
                      (not a!3)
                      (not (Proc6 D G1 G1 E1 D1 I E G C B))
                      (and a!4 a!5))
                  a!6)))
  (let ((a!8 (not (or (not I)
                      (= G1 0)
                      (not (Proc24 F1 G1 G1 E1 D1 I C1))
                      (not (Proc31 F1 G1 G1 E1 D1 I B1))
                      (not (Proc25 F1 G1 G1 E1 D1 I A1))
                      (not (Proc30 F1 G1 G1 E1 D1 I Y))
                      (not (Proc23 F1 G1 G1 E1 D1 I X))
                      (not (Proc27 F1 G1 G1 E1 D1 I W))
                      (not (Proc34 F1 G1 G1 E1 D1 I V))
                      (not (Proc32 F1 G1 G1 E1 D1 I U))
                      (not (Proc22 F1 G1 G1 E1 D1 I R))
                      (not (Proc28 F1 G1 G1 E1 D1 I Q))
                      (not (Proc29 F1 G1 G1 E1 D1 I P))
                      (not (Proc26 F1 G1 G1 E1 D1 I O))
                      a!7))))
    (=> a!8 (Proc20 F1 A G1 E1 D1 I L K J))))))))
(assert (forall ((A Int) (B Int) (C Int) (D Int) (E Int) (I Bool))
  (=> I (Proc36 E D C B A I))))
(assert (forall ((A Int) (B Int) (C Int) (D Int) (E Int) (F Int) (G Int) (I Bool))
  (=> I (Proc37 G F E D C I B A))))
(assert (forall ((A Int) (B Int) (C Int) (D Int) (E Int) (I Bool))
  (=> I (Proc39 E D C B A I))))
(assert (forall ((A Int)
         (B Int)
         (C Int)
         (D Int)
         (E Int)
         (F Int)
         (G Int)
         (H Int)
         (I Bool)
         (J Int)
         (K Int)
         (L Int)
         (M Int)
         (N Int)
         (O Int)
         (P Int)
         (Q Int)
         (R Int)
         (U Int)
         (V Int)
         (W Int)
         (X Int)
         (Y Int)
         (A1 Int)
         (B1 Int)
         (C1 Int)
         (D1 Int)
         (E1 Int)
         (F1 Int)
         (G1 Int)
         (H1 Int)
         (I1 Int)
         (J1 Int)
         (K1 Int)
         (L1 Int)
         (M1 Int)
         (N1 Int)
         (O1 Int)
         (P1 Int)
         (Q1 Int)
         (R1 Int)
         (S1 Int)
         (T1 Int)
         (U1 Int)
         (V1 Int)
         (W1 Int)
         (X1 Int)
         (Y1 Int)
         (Z1 Int)
         (A2 Int)
         (B2 Int)
         (C2 Int)
         (D2 Int)
         (E2 Int)
         (F2 Int)
         (G2 Int)
         (H2 Int)
         (I2 Int)
         (J2 Int)
         (K2 Int)
         (L2 Int)
         (M2 Int)
         (N2 Int)
         (O2 Int)
         (P2 Int)
         (Q2 Int)
         (R2 Int)
         (S2 Int)
         (T2 Int)
         (U2 Int)
         (V2 Int)
         (W2 Int)
         (X2 Int)
         (Y2 Int)
         (Z2 Int)
         (A3 Int)
         (B3 Int)
         (C3 Int)
         (D3 Int)
         (E3 Int)
         (F3 Int)
         (G3 Int)
         (H3 Int)
         (I3 Int)
         (J3 Int)
         (K3 Int)
         (L3 Int)
         (M3 Int)
         (N3 Int)
         (O3 Int)
         (P3 Int)
         (Q3 Int)
         (R3 Int)
         (S3 Int)
         (T3 Int)
         (U3 Int)
         (V3 Int)
         (W3 Int)
         (X3 Int)
         (Y3 Int)
         (Z3 Int)
         (A4 Int)
         (B4 Int)
         (C4 Int)
         (D4 Int)
         (E4 Int)
         (F4 Int)
         (G4 Int)
         (H4 Int)
         (I4 Int)
         (J4 Int)
         (K4 Int)
         (L4 Int)
         (M4 Int)
         (N4 Int)
         (O4 Int)
         (P4 Int)
         (Q4 Int)
         (R4 Int)
         (S4 Int)
         (T4 Int)
         (U4 Int)
         (V4 Int)
         (W4 Int)
         (X4 Int)
         (Y4 Int)
         (Z4 Int)
         (A5 Int)
         (B5 Int)
         (C5 Int)
         (D5 Int)
         (E5 Int)
         (F5 Int)
         (G5 Int)
         (H5 Int)
         (I5 Int)
         (J5 Int)
         (K5 Int)
         (L5 Int)
         (M5 Int)
         (N5 Int)
         (O5 Int)
         (P5 Int)
         (Q5 Int)
         (R5 Int)
         (S5 Int)
         (T5 Int)
         (U5 Int)
         (V5 Int)
         (W5 Int)
         (X5 Int)
         (Y5 Int)
         (Z5 Int)
         (A6 Int)
         (B6 Int)
         (C6 Int)
         (D6 Int)
         (E6 Int)
         (F6 Int)
         (G6 Int)
         (H6 Int)
         (I6 Int)
         (J6 Int)
         (K6 Int)
         (L6 Int)
         (M6 Int)
         (N6 Int)
         (O6 Int)
         (P6 Int)
         (Q6 Int)
         (R6 Int)
         (S6 Int)
         (T6 Int)
         (U6 Int)
         (V6 Int)
         (W6 Int)
         (X6 Int)
         (Y6 Int)
         (Z6 Int)
         (A7 Int)
         (B7 Int)
         (C7 Int)
         (D7 Int)
         (E7 Int)
         (F7 Int)
         (G7 Int)
         (H7 Int)
         (I7 Int))
  (let ((a!1 (and (= I7 H7) (not (<= G7 (+ 16 I7)))))
        (a!2 (and (not (<= G7 H7))
                  (= F7 G7)
                  (not (<= E7 (+ 16 F7)))
                  (not (<= E7 G7))))
        (a!3 (and (= D7 E7)
                  (not (<= C7 (+ 16 D7)))
                  (not (<= C7 E7))
                  (= B7 C7)
                  (not (<= A7 (+ 16 B7)))
                  (not (<= A7 C7))
                  (= Z6 A7)
                  (not (<= Y6 (+ 16 Z6)))))
        (a!4 (and (not (<= Y6 A7))
                  (= X6 Y6)
                  (not (<= W6 (+ 16 X6)))
                  (not (<= W6 Y6))
                  (= V6 W6)
                  (not (<= U6 (+ 16 V6)))
                  (not (<= U6 W6))
                  (= T6 U6)
                  (not (<= S6 (+ 16 T6)))
                  (not (<= S6 U6))
                  (= R6 S6)
                  (not (<= Q6 (+ 16 R6)))
                  (not (<= Q6 S6))
                  (= P6 Q6)
                  (not (<= O6 (+ 16 P6)))
                  (not (<= O6 Q6))
                  (= N6 O6)
                  (not (<= M6 (+ 16 N6)))
                  (not (<= M6 O6))
                  (= L6 M6)
                  (not (<= K6 (+ 16 L6)))
                  (not (<= K6 M6))
                  (= J6 K6)
                  (not (<= I6 (+ 16 J6)))
                  (not (<= I6 K6))
                  (= H6 I6)
                  (not (<= G6 (+ 16 H6)))
                  (not (<= G6 I6))
                  (= F6 G6)
                  (not (<= E6 (+ 16 F6)))
                  (not (<= E6 G6))
                  (= D6 E6)
                  (not (<= C6 (+ 16 D6)))
                  (not (<= C6 E6))
                  (= B6 C6)
                  (not (<= A6 (+ 16 B6)))
                  (not (<= A6 C6))
                  (= Z5 A6)
                  (not (<= Y5 (+ 16 Z5)))
                  (not (<= Y5 A6))
                  (= X5 Y5)
                  (not (<= W5 (+ 16 X5)))
                  (not (<= W5 Y5))
                  (= V5 W5)
                  (not (<= U5 (+ 16 V5)))
                  (not (<= U5 W5))
                  (= T5 U5)
                  (not (<= S5 (+ 16 T5)))
                  (not (<= S5 U5))
                  (= R5 S5)
                  (not (<= Q5 (+ 16 R5)))
                  (not (<= Q5 S5))
                  (= P5 Q5)
                  (not (<= O5 (+ 16 P5)))
                  (not (<= O5 Q5))
                  (= N5 O5)
                  (not (<= M5 (+ 16 N5)))
                  (not (<= M5 O5))
                  (= L5 M5)
                  (not (<= K5 (+ 16 L5)))
                  (not (<= K5 M5))
                  (= J5 K5)
                  (not (<= I5 (+ 16 J5)))
                  (not (<= I5 K5))
                  (= H5 I5)
                  (not (<= G5 (+ 16 H5)))
                  (not (<= G5 I5))
                  (= F5 G5)
                  (not (<= E5 (+ 16 F5)))
                  (not (<= E5 G5))
                  (= D5 E5)
                  (not (<= C5 (+ 16 D5)))
                  (not (<= C5 E5))
                  (= B5 C5)
                  (not (<= A5 (+ 16 B5)))
                  (not (<= A5 C5))
                  (= Z4 A5)
                  (not (<= Y4 (+ 16 Z4)))
                  (not (<= Y4 A5))
                  (= X4 Y4)
                  (not (<= W4 (+ 16 X4)))
                  (not (<= W4 Y4))
                  (= V4 W4)
                  (not (<= U4 (+ 16 V4)))
                  (not (<= U4 W4))
                  (= T4 U4)
                  (not (<= S4 (+ 16 T4)))
                  (not (<= S4 U4))
                  (= R4 S4)
                  (not (<= Q4 (+ 16 R4)))
                  (not (<= Q4 S4))
                  (= P4 Q4)
                  (not (<= O4 (+ 16 P4)))
                  (not (<= O4 Q4))
                  (= N4 O4)
                  (not (<= M4 (+ 16 N4)))
                  (not (<= M4 O4))
                  (= L4 M4)
                  (not (<= K4 (+ 16 L4)))
                  (not (<= K4 M4))
                  (= J4 K4)
                  (not (<= I4 (+ 16 J4)))
                  (not (<= I4 K4))
                  (= H4 I4)
                  (not (<= G4 (+ 16 H4)))
                  (not (<= G4 I4))
                  (= F4 G4)
                  (not (<= E4 (+ 16 F4)))
                  (not (<= E4 G4))
                  (= D4 E4)
                  (not (<= C4 (+ 16 D4)))
                  (not (<= C4 E4))
                  (= B4 C4)
                  (not (<= A4 (+ 16 B4)))
                  (not (<= A4 C4))
                  (= Z3 A4)
                  (not (<= Y3 (+ 16 Z3)))
                  (not (<= Y3 A4))
                  (= X3 Y3)
                  (not (<= W3 (+ 16 X3)))
                  (not (<= W3 Y3))
                  (= V3 W3)
                  (not (<= U3 (+ 16 V3)))
                  (not (<= U3 W3))
                  (= T3 U3)
                  (not (<= S3 (+ 16 T3)))
                  (not (<= S3 U3))
                  (= R3 S3)
                  (not (<= Q3 (+ 16 R3)))
                  (not (<= Q3 S3))
                  (= P3 Q3)
                  (not (<= O3 (+ 16 P3)))
                  (not (<= O3 Q3))
                  (= N3 O3)
                  (not (<= M3 (+ 16 N3)))
                  (not (<= M3 O3))
                  (= L3 M3)
                  (not (<= K3 (+ 16 L3)))
                  (not (<= K3 M3))
                  (= J3 K3)
                  (not (<= I3 (+ 16 J3)))
                  (not (<= I3 K3))
                  (= H3 I3)
                  (not (<= G3 (+ 16 H3)))
                  (not (<= G3 I3))
                  (= F3 G3)
                  (not (<= E3 (+ 16 F3)))
                  (not (<= E3 G3))
                  (= D3 E3)
                  (not (<= C3 (+ 16 D3)))
                  (not (<= C3 E3))
                  (= B3 C3)
                  (not (<= A3 (+ 16 B3)))
                  (not (<= A3 C3))
                  (= Z2 A3)
                  (not (<= Y2 (+ 16 Z2)))
                  (not (<= Y2 A3))
                  (= X2 Y2)
                  (not (<= W2 (+ 16 X2)))
                  (not (<= W2 Y2))
                  (= V2 W2)
                  (not (<= U2 (+ 16 V2)))
                  (not (<= U2 W2))
                  (= T2 U2)
                  (not (<= S2 (+ 16 T2)))
                  (not (<= S2 U2))
                  (= R2 S2)
                  (not (<= Q2 (+ 16 R2)))
                  (not (<= Q2 S2))
                  (= P2 Q2)
                  (not (<= O2 (+ 240 P2)))
                  (not (<= O2 Q2))
                  (= N2 O2)
                  (not (<= M2 (+ 16 N2)))
                  (not (<= M2 O2))
                  (= L2 M2)
                  (not (<= K2 (+ 16 L2)))
                  (not (<= K2 M2))
                  (= J2 K2)
                  (not (<= I2 (+ 16 J2)))
                  (not (<= I2 K2))
                  (= H2 I2)
                  (not (<= G2 (+ 4 H2)))
                  (not (<= G2 I2))
                  (= F2 G2)
                  (not (<= E2 (+ 332 F2)))
                  (not (<= E2 G2))
                  (= D2 E2)
                  (not (<= C2 (+ 4 D2)))
                  (not (<= C2 E2))
                  (= B2 C2)
                  (not (<= A2 (+ 536 B2)))
                  (not (<= A2 C2))
                  (= Z1 A2)
                  (not (<= Y1 (+ 240 Z1)))
                  (not (<= Y1 A2))
                  (= X1 Y1)
                  (not (<= W1 (+ 240 X1)))
                  (not (<= W1 Y1))
                  (= V1 W1)
                  (not (<= U1 (+ 536 V1)))
                  (not (<= U1 W1))
                  (= T1 U1)
                  (not (<= S1 (+ 240 T1)))
                  (not (<= S1 U1))
                  (= R1 S1)
                  (not (<= Q1 (+ 4 R1)))
                  (not (<= Q1 S1))
                  (= P1 Q1)
                  (not (<= O1 (+ 536 P1)))
                  (not (<= O1 Q1))
                  (= N1 O1)
                  (not (<= M1 (+ 332 N1)))
                  (not (<= M1 O1))
                  (= L1 M1)
                  (not (<= K1 (+ 240 L1)))
                  (not (<= K1 M1))
                  (= J1 K1)
                  (not (<= I1 (+ 240 J1)))
                  (not (<= I1 K1))
                  (= H1 I1)
                  (not (<= G1 (+ 332 H1)))
                  (not (<= G1 I1))
                  (= F1 G1)
                  (not (<= E1 (+ 4 F1)))
                  (not (<= E1 G1))
                  (= D1 E1)
                  (not (<= C1 (+ 536 D1)))
                  (not (<= C1 E1))
                  (= B1 C1)
                  (not (<= A1 (+ 240 B1)))
                  (not (<= A1 C1))
                  (= Y A1)
                  (not (<= X (+ 240 Y)))
                  (not (<= X A1))
                  (= W X)
                  (not (<= V (+ 240 W)))
                  (not (<= V X))
                  (= U V)
                  (not (<= R (+ 240 U)))
                  (not (<= R V))
                  (= Q R)
                  (not (<= P (+ 240 Q)))
                  (not (<= P R))
                  (= O P)
                  (not (<= N (+ 40 O)))
                  (not (<= N P))
                  (= M N)
                  (not (<= L (+ 332 M)))
                  (not (<= L N))
                  (= K L)
                  (not (<= J (+ 4 K)))
                  (not (<= J L))
                  (= H J)
                  (not (<= G (+ 40 H)))
                  (not (<= G J)))))
  (let ((a!5 (or (not I)
                 (not a!1)
                 (not a!2)
                 (not a!3)
                 (not a!4)
                 (not (and (= F G) (= E Q))))))
    (=> (not a!5) (Proc19 H7 D C B A I F E))))))
(assert (forall ((A Int)
         (B Int)
         (C Int)
         (D Int)
         (E Int)
         (F Int)
         (G Int)
         (H Int)
         (I Bool)
         (J Int)
         (K Int)
         (L Int)
         (M Int)
         (N Int)
         (O Int)
         (P Int)
         (Q Int)
         (R Int)
         (S Bool)
         (T Bool))
  (let ((a!1 (or (not T)
                 (not (and (Proc21 R Q P O N true M L K J S H G) (not S))))))
    (=> (not a!1) (Proc40 R Q P O N T F I E D C B A)))))
(assert (let ((a!1 (exists ((V0 Int)
                    (V1 Int)
                    (V2 Int)
                    (V3 Int)
                    (V4 Int)
                    (V5 Bool)
                    (V6 Int)
                    (V7 Bool)
                    (V8 Int)
                    (V9 Int)
                    (V10 Int)
                    (V11 Int)
                    (V12 Int))
             (not (=> (and (Proc40 V0 V1 V2 V3 V4 V5 V6 V7 V8 V9 V10 V11 V12)
                           (not false))
                      false)))))
  (not a!1)))

(check-sat)
